CMD:
./solvers/bin/cadical --plain --no-reduce -t 1600 ./data/cnfs//qspiflash_dualflexpress_divfive-p007/qspiflash_dualflexpress_divfive-p007.93.cnf

c --- [ banner ] -------------------------------------------------------------
c 
c CaDiCaL SAT Solver
c Copyright (c) 2016-2024
c A. Biere, M. Fleury, N. Froleyks, K. Fazekas, F. Pollitt, T. Faller
c JKU Linz, University of Freiburg, TU Wien
c 
c Version 2.1.3 5296d3d2a9bf48c154ab2acb5e44625776d821bf
c g++ (Gentoo 12.3.1_p20230526 p2) 12.3.1 20230526 -Wall -Wextra -O3 -DNDEBUG
c Sat Aug 9 07:26:21 PDT 2025 Linux cedar2.int.cedar.computecanada.ca 5.14.0-362.24.2.el9_3.x86_64 x86_64
c 
c --- [ limit ] --------------------------------------------------------------
c 
c setting time limit to 1600 seconds real time (due to '-t 1600')
c 
c --- [ parsing input ] ------------------------------------------------------
c 
c reading DIMACS file from './data/cnfs//qspiflash_dualflexpress_divfive-p007/qspiflash_dualflexpress_divfive-p007.93.cnf'
c opening file to read './data/cnfs//qspiflash_dualflexpress_divfive-p007/qspiflash_dualflexpress_divfive-p007.93.cnf'
c found 'p cnf 278401 813345' header
c parsed 813345 clauses in 0.13 seconds process time
c 
c --- [ options ] ------------------------------------------------------------
c 
c   --compact=false                (different from default 'true')
c   --decompose=false              (different from default 'true')
c   --deduplicate=false            (different from default 'true')
c   --elim=false                   (different from default 'true')
c   --probe=false                  (different from default 'true')
c   --reduce=false                 (different from default 'true')
c   --subsume=false                (different from default 'true')
c   --ternary=false                (different from default 'true')
c   --transred=false               (different from default 'true')
c   --vivify=false                 (different from default 'true')
c 
c --- [ solving ] ------------------------------------------------------------
c 
c time measured in process time since initialization
c 
c  seconds   reductions  redundant  irredundant
c          MB    restarts       trail       variables
c           level   conflicts       glue          remaining
c 
c *  0.13 128  0 0   0    0    0  0% 0 790001 262591 94%
c {  0.21 132  0 0   0    0    0  0% 0 790001 262591 94%
c i  0.21 132  1 0   0    1    0  6% 0 790001 262578 94%
c i  0.21 132  1 0   0    2    0  7% 0 790001 262424 94%
c i  0.22 132 22 0   0    8    4 11% 2 790001 262384 94%
c i  0.29 133 10 0   0   23   14 17% 2 790001 262381 94%
c i  0.31 133 60 0   5   43   31 16% 19 790001 262377 94%
c i  0.38 134 149 0   5  466  389 17% 7 790001 262376 94%
c i  0.39 134 140 0   5  538  455 16% 7 790001 262375 94%
c i  0.40 134 133 0   5  676  585 17% 6 790001 262374 94%
c i  0.42 134 133 0   5  792  692 19% 5 790001 262373 94%
c i  0.42 134 133 0   5  797  696 19% 5 790001 262372 94%
c i  0.44 134 134 0   5  902  792 21% 5 790001 262371 94%
c i  0.44 134 132 0   5  972  847 21% 5 790001 262370 94%
c }  0.45 134 131 0   5 1002  870 21% 5 790001 262370 94%
c [  0.45 134  0 0   5 1002  870  0% 0 790001 262370 94%
c O  0.50 134 2071 0   5 1003  871 99% 2 790001 262370 94%
c i  0.51 134 2044 0   5 1007  874 98% 2 790001 262352 94%
c i  0.51 134 2039 0   5 1010  876 98% 1 790001 262349 94%
c i  0.52 134 1974 0   5 1371 1215 96% 7 790001 262345 94%
c 
c  seconds     reductions  redundant  irredundant
c          MB      restarts       trail       variables
c            level    conflicts       glue          remaining
c 
c i  0.58 134 1886 0   6 2089 1878 92% 8 790001 262344 94%
c i  0.71 134 1695 0   6 2245 2023 84% 7 790001 262343 94%
c i  0.77 134 1659 0   6 2288 2063 82% 7 790001 262342 94%
c ]  1.20 135 1402 0   6 3002 2705 73% 6 790001 262342 94%
c {  1.20 135 131 0   6 3002 2705 21% 5 790001 262342 94%
c F  1.21 135 132 0   6 3006 2709 21% 5 790001 262342 94%
c i  1.29 135 125 0  23 3483 3143 23% 5 790001 262338 94%
c i  1.29 135 124 0  23 3497 3154 22% 5 790001 262334 94%
c i  1.29 135 124 0  23 3498 3154 22% 5 790001 262330 94%
c i  1.29 135 122 0  23 3522 3167 22% 5 790001 262329 94%
c i  1.35 135 124 0  35 3881 3493 23% 4 790001 262320 94%
c i  1.35 135 125 0  35 3892 3503 23% 4 790001 262313 94%
c i  1.35 135 125 0  35 3908 3516 23% 4 790001 262304 94%
c i  1.35 135 125 0  35 3918 3522 23% 4 790001 262290 94%
c i  1.35 135 126 0  35 3950 3544 23% 4 790001 262273 94%
c i  1.35 135 126 0  35 3952 3545 23% 4 790001 262265 94%
c i  1.35 135 126 0  35 3960 3552 23% 4 790001 262258 94%
c i  1.35 135 127 0  35 3988 3569 23% 4 790001 262245 94%
c i  1.36 135 124 0  35 4111 3680 23% 4 790001 262244 94%
c i  1.37 135 123 0  37 4171 3733 23% 4 790001 262243 94%
c 
c  seconds    reductions  redundant  irredundant
c          MB     restarts       trail       variables
c            level   conflicts       glue          remaining
c 
c i  1.38 135 119 0  44 4283 3834 23% 4 790001 262236 94%
c i  1.38 135 119 0  44 4286 3834 23% 4 790001 262205 94%
c i  1.38 135 119 0  44 4288 3835 23% 4 790001 262196 94%
c i  1.38 135 117 0  44 4330 3872 22% 4 790001 262187 94%
... skipped 241 lines ...
c 
c  seconds    reductions       redundant    irredundant
c           MB     restarts            trail        variables
c            level      conflicts          glue           remaining
c 
c B 398.77 288 35 0 24303 378056 326930 26% 11 745906 259411 93%
c i 413.70 288 35 0 25106 385581 333546 26% 11 745906 259403 93%
c i 416.52 288 35 0 25306 386582 334484 26% 11 745906 259395 93%
c i 418.57 288 35 0 25402 387696 335464 26% 11 745906 259393 93%
c i 423.24 288 34 0 25569 390951 338019 26% 11 745906 259389 93%
c i 444.61 288 33 0 26378 404235 349580 26% 11 745906 259385 93%
c i 446.23 288 33 0 26453 405085 350339 26% 11 745906 259377 93%
c W 448.90 303 33 0 26570 406057 339289 26% 11 744533 259377 93%
c i 469.16 303 32 0 27497 415572 347549 26% 11 744533 259372 93%
c i 497.97 303 31 0 28746 431156 360612 27% 11 744533 259368 93%
c i 503.33 303 31 0 28996 434779 363705 27% 11 744533 259364 93%
c F 504.15 303 30 0 29022 435060 363949 27% 11 744533 259364 93%
c i 533.19 303 29 0 30236 453306 379419 27% 11 744533 259359 93%
c B 552.45 304 29 0 30976 465062 389297 27% 11 744533 259359 93%
c i 577.50 304 27 0 31762 480613 401923 27% 11 744533 259355 93%
c i 603.12 304 27 0 33181 494537 414330 27% 11 744533 259354 93%
c i 603.12 304 27 0 33181 494541 414333 27% 11 744533 259353 93%
c W 605.02 322 27 0 33256 496064 410069 27% 11 744198 259353 93%
c i 616.64 322 27 0 33796 504016 416905 27% 11 744198 259349 93%
c i 631.75 322 27 0 34630 510972 422949 27% 11 744198 259344 93%
c 
c  seconds    reductions       redundant    irredundant
c           MB     restarts            trail        variables
c            level      conflicts          glue           remaining
c 
c } 631.83 322 27 0 34638 511009 422983 27% 11 744198 259342 93%
c [ 631.83 322 81 0 34638 511009 422983 33% 24 744198 259342 93%
c W 658.78 330 71 0 34638 528065 436712 33% 23 744136 259342 93%
c i 667.89 330 66 0 34640 543451 451271 31% 21 744136 259341 93%
c I 686.88 330 61 0 34651 561066 467559 30% 21 744136 259341 93%
c i 705.64 330 55 0 34656 577184 481191 31% 19 744136 259319 93%
c i 710.15 330 54 0 34657 579232 482880 31% 19 744136 259318 93%
c B 735.09 330 51 0 34666 595070 496859 31% 20 744136 259318 93%
c i 753.29 330 48 0 34668 606169 505675 31% 19 744136 258395 93%
c i 780.11 336 45 0 34673 629252 525545 29% 20 744136 258393 93%
c W 781.75 337 45 0 34674 630071 430505 29% 20 739860 258393 93%
c i 789.67 337 44 0 34676 634981 434214 29% 20 739860 257945 93%
c i 789.84 337 44 0 34676 635064 434267 29% 20 739860 257413 92%
c i 796.77 337 43 0 34679 639691 437917 29% 19 739860 245302 88%
c ] 796.82 337 43 0 34679 639710 437924 29% 19 739860 227037 82%
c 0 796.82 337 43 0 34679 639710 437924 29% 19 739860 227037 82%
c 
c --- [ result ] -------------------------------------------------------------
c 
s UNSATISFIABLE
c 
c --- [ run-time profiling ] -------------------------------------------------
c 
c process time taken by individual solving procedures
c (percentage relative to process time for solving)
c 
c       796.69  100.00% search
c       519.62   65.22% unstable
c       273.79   34.37% stable
c         3.21    0.40% walk
c         0.13    0.02% parse
c         0.08    0.01% lucky
c         0.00    0.00% simplify
c   =================================
c       796.69   99.98% solve
c 
c last line shows process time for solving
c (percentage relative to total process time)
c 
c --- [ statistics ] ---------------------------------------------------------
c 
c chronological:            157879        24.68 %  of conflicts
c conflicts:                639710       802.96    per second
c decisions:               2109974      2648.43    per second
c fixed:                     51330        18.44 %  of all variables
c learned:                  622004        97.23 %  per conflict
c learned_lits:          101016098       100.00 %  learned literals
c minimized:                     0         0.00 %  learned literals
c shrunken:               24943849        24.69 %  learned literals
c minishrunken:           32209302        31.89 %  learned literals
c otfs:                       1989         0.31 %  of conflict
c propagations:         4236791575         5.32 M  per second
c rephased:                     35     18277.43    interval
c restarts:                  34679        18.45    interval
c stabilizing:                   5        46.69 %  of conflicts
c subsumed:                  56152         3.98 %  of all clauses
c strengthened:               1976         0.14 %  of all clauses
c walked:                       11     58155.45    interval
c 
c seconds are measured in process time for solving
c 
c --- [ resources ] ----------------------------------------------------------
c 
c total process time since initialization:       796.82    seconds
c total real time since initialization:          801.16    seconds
c maximum resident set size of process:          486.78    MB
c 
c --- [ shutting down ] ------------------------------------------------------
c 
c exit 20
